119 48 011 1
1
623 113 1
632 114 1
547 115 1
597 116 1
608 117 1
686 118 1
634 119 1
605 108 1
534 109 1
510 110 1
606 111 1
686 112 1
538 113 1
731 114 1
507 115 1
565 116 1
679 117 1
535 118 1
530 119 1
614 108 1
554 109 1
556 110 1
431 111 1
504 112 1
640 113 1
497 114 1
638 115 1
609 116 1
613 117 1
681 118 1
608 119 1
645 108 1
496 109 1
485 110 1
567 111 1
528 112 1
566 113 1
523 114 1
526 115 1
581 116 1
609 117 1
633 118 1
748 119 1
541 108 1
660 109 1
614 110 1
524 111 1
434 112 1
1
1
1
1
1
1
1
1
1
1
1
1
1
1
1
1
1
1
1
1
1
1
1
1
1
1
1
1
1
1
1
1
1
1
1
1
1
1
1
1
1
1
1
1
1
1
1
1
1
1
1
1
1
1
1
1
1
1
1 9 604 21 613 33 644 45 540
1 10 533 22 553 34 495 46 659
1 11 509 23 555 35 484 47 613
1 12 605 24 430 36 566 48 523
1 13 685 25 503 37 527 49 433
1 2 622 14 537 26 639 38 565
1 3 631 15 730 27 496 39 522
1 4 546 16 506 28 637 40 525
1 5 596 17 564 29 608 41 580
1 6 607 18 678 30 612 42 608
1 7 685 19 534 31 680 43 632
1 8 633 20 529 32 607 44 747
